============================[ Problem Statistics ]=============================|                                                                             ||  Number of variables:          4242                                         ||  Number of clauses:           10129                                         ||  Parse time:                   0.52 s                                       ||                                                                             |============================[ Search Statistics ]==============================| Conflicts |          ORIGINAL         |          LEARNT          | Progress ||           |    Vars  Clauses Literals |    Limit  Clauses Lit/Cl |          |===============================================================================|       100 |    1591     6334   824795 |     2322      100     53 | 62.501 % ||       250 |    1591     6334   824795 |     2554      250     75 | 62.495 % |===============================================================================restarts              : 3conflicts             : 289            (370 /sec)decisions             : 553            (0.00 % random) (707 /sec)propagations          : 11829          (15127 /sec)conflict literals     : 22612          (94.77 % deleted)CPU time              : 0.782 sSATISFIABLE